%mem=800mw
%nprocshared=4
# OLYP/Gen charge nosymm nmr(printeigenvectors) integral(grid=ultrafine)

 AF-NMR fragment for residue    3; version = 1.2; nbcut =  3.30

   1   1
 C       48.3930  -87.2460    6.3650
 O       48.1990  -86.5060    7.3320
 N       48.3410  -86.8330    5.0970
 H       48.4740  -87.4840    4.3790
 C       48.0490  -85.4510    4.7320
 H       47.6590  -84.9290    5.5970
 C       49.3150  -84.7250    4.2580
 H       49.0630  -83.6960    4.0430
 C       50.3620  -84.7540    5.3760
 H       49.9660  -84.2640    6.2530
 H       51.2540  -84.2400    5.0490
 H       50.6060  -85.7790    5.6170
 C       49.8950  -85.3980    3.0090
 H       50.3330  -86.3460    3.2820
 H       49.1120  -85.5580    2.2860
 C       50.9690  -84.4990    2.3890
 H       50.4970  -83.7460    1.7790
 H       51.6270  -85.0970    1.7770
 H       51.5430  -84.0210    3.1720
 N       52.9230  -90.0160    8.5090
 H       52.7210  -91.0190    8.3280
 H       53.5810  -89.9330    9.3110
 H       53.3520  -89.5920    7.6630
 C       51.6530  -89.3040    8.8330
 H       51.0730  -89.9040    9.5190
 C       51.9760  -87.9580    9.4850
 H       51.0580  -87.4210    9.6740
 H       52.4920  -88.1230   10.4160
 C       52.8640  -87.1310    8.5570
 H       53.7460  -87.7000    8.3020
 H       52.3190  -86.8870    7.6570
 S       53.3550  -85.6060    9.4030
 C       53.3590  -84.5240    7.9540
 H       53.9850  -84.9560    7.1850
 H       53.7450  -83.5550    8.2280
 H       52.3480  -84.4150    7.5850
 C       50.8510  -89.0860    7.5560
 O       51.4140  -89.0330    6.4620
 N       49.5350  -88.9530    7.6980
 H       49.1450  -89.0060    8.5950
 C       48.6640  -88.7330    6.5440
 H       49.1390  -89.1250    5.6570
 C       47.3220  -89.4450    6.7390
 H       46.9170  -89.1860    7.7060
 H       46.6350  -89.1300    5.9670
 C       47.5060  -90.9600    6.6580
 H       48.2990  -91.2630    7.3240
 H       46.5860  -91.4460    6.9480
 C       47.8560  -91.3690    5.2340
 O       47.6050  -90.6180    4.2940
 N       48.4030  -92.5310    5.0170
 H       48.5910  -93.1320    5.7670
 H       48.6170  -92.8060    4.1030
 C       46.9700  -85.4580    3.6490
 O       46.7040  -86.4990    3.0430
 N       46.3570  -84.2950    3.3990
 H       46.6270  -83.4900    3.8770
 C       45.3090  -84.1920    2.3720
 H       45.2110  -85.1390    1.8630
 C       43.9700  -83.8450    3.0250
 H       44.0620  -82.9110    3.5560
 H       43.2150  -83.7430    2.2660
 C       43.5690  -84.9340    3.9930
 C       42.9830  -86.1120    3.5130
 H       42.8260  -86.2430    2.4530
 C       42.6010  -87.1190    4.4070
 H       42.1490  -88.0270    4.0360
 C       42.8050  -86.9500    5.7810
 H       42.5100  -87.7280    6.4700
 C       43.3910  -85.7740    6.2620
 H       43.5470  -85.6440    7.3220
 C       43.7720  -84.7650    5.3680
 H       44.2240  -83.8570    5.7390
H        45.5490  -83.4229    1.6379

      48.199000     -86.506000      10.232000    0.02712755
      48.647000     -85.127000       9.843000    0.10632583
      47.026000     -85.654000       9.843000    0.16569624
      47.026000     -87.358000       9.843000    0.05199062
      48.975000     -84.117000       8.782000    0.08060151
      47.423000     -84.117000       8.782000    0.19929023
      46.167000     -85.030000       8.782000    0.12174668
      45.688000     -86.506000       8.782000    0.02072041
      49.238000     -88.808000       2.276000   -0.27817332
      46.895000     -83.606000       7.700000    0.13671966
      46.895000     -82.577000       6.400000   -0.13123199
      49.827000     -81.344000       4.846000    0.05606270
      48.299000     -81.344000       4.846000   -0.04098373
      49.827000     -81.344000       3.240000    0.03601939
      48.299000     -81.344000       3.240000   -0.06606091
      50.736000     -81.677000       5.376000    0.00860615
      49.966000     -84.264000       8.853000   -0.03958453
      49.202000     -82.941000       8.356000    0.00309717
      50.730000     -81.912000       7.056000   -0.03053148
      49.202000     -81.912000       7.056000   -0.03341975
      52.018000     -81.888000       5.852000    0.00599861
      53.254000     -85.693000       4.246000   -0.00288301
      49.513000     -88.055000       1.459000   -0.06577886
      52.806000     -86.346000       4.085000    0.04035799
      51.097000     -88.698000       2.479000   -0.05167865
      52.333000     -87.799000       2.479000    0.01043814
      51.097000     -87.670000       1.179000   -0.01055720
      48.348000     -84.234000       0.183000   -0.09981189
      47.584000     -85.558000       0.183000   -0.10913808
      48.348000     -86.881000       0.183000    0.08833990
      49.876000     -86.882000       0.183000    0.07909327
      49.112000     -85.558000      -0.314000    0.04993115
      53.227000     -85.950000       3.939000   -0.00053264
      53.228000     -83.048000       0.839000   -0.00861933
      50.194000     -85.841000      -0.296000    0.03315919
      50.969000     -84.499000      -0.711000   -0.03191326
      51.261000     -81.394000       2.582000   -0.00846319
      49.733000     -81.394000       2.582000   -0.01440421
      51.261000     -81.394000       0.976000    0.00460819
      49.733000     -81.394000       0.976000   -0.01503356
      48.497000     -82.293000       0.976000   -0.09503629
      51.261000     -82.423000      -0.324000    0.00055675
      49.733000     -82.423000      -0.324000   -0.00602919
      48.969000     -83.746000      -0.324000   -0.03577266
      50.497000     -83.746000      -0.821000   -0.01015808
      54.100000     -85.097000       2.580000   -0.03483366
      53.627000     -86.550000       2.580000   -0.01752597
      54.100000     -85.097000       0.974000   -0.00461457
      53.627000     -83.644000       0.974000   -0.01908007
      52.391000     -87.449000       0.974000   -0.00631554
      53.627000     -86.550000       0.974000   -0.00319025
      53.155000     -85.097000      -0.326000    0.00559296
      52.391000     -83.773000      -0.326000   -0.03117723
      50.863000     -86.420000      -0.326000    0.02614803
      52.391000     -86.421000      -0.326000    0.01118910
      51.627000     -85.097000      -0.823000   -0.00205569
      54.016000     -84.021000       3.975000   -0.01821085
      53.543000     -82.568000       3.975000    0.00143067
      52.307000     -81.669000       3.975000    0.01475383
      50.779000     -81.669000       3.975000    0.03648007
      53.543000     -85.474000       3.975000   -0.01997252
      53.543000     -82.568000       2.369000    0.00890004
      52.307000     -81.669000       2.369000   -0.00014464
      51.957000     -92.342000      10.431000   -0.04118914
      53.485000     -92.342000      10.431000   -0.03891993
      50.721000     -92.472000       9.131000   -0.10498712
      51.957000     -93.371000       9.131000    0.01176134
      53.485000     -93.371000       9.131000    0.04289092
      54.721000     -92.472000       9.131000   -0.02753912
      50.721000     -92.472000       7.525000   -0.13736594
      51.957000     -93.371000       7.525000   -0.02181310
      53.485000     -93.371000       7.525000    0.02692778
      54.721000     -92.472000       7.525000   -0.04123659
      51.957000     -92.342000       6.225000   -0.05725570
      53.485000     -92.342000       6.225000   -0.04269053
      55.109000     -89.933000      11.414000   -0.03757609
      52.817000     -91.256000      11.414000   -0.09115156
      54.345000     -91.257000      11.414000   -0.02527368
      56.054000     -89.933000      10.114000   -0.03534438
      55.581000     -88.480000      10.114000   -0.06519076
      54.345000     -92.285000      10.114000   -0.03030372
      55.581000     -91.386000      10.114000   -0.02077460
      56.054000     -89.933000       8.508000   -0.13485630
      55.581000     -91.386000       8.508000   -0.12081202
      55.825000     -89.592000       6.860000   -0.14713659
      55.352000     -91.045000       6.860000   -0.16477855
      54.880000     -89.592000       5.560000   -0.09928340
      54.116000     -88.269000       5.560000   -0.09416578
      54.116000     -90.916000       5.560000   -0.07786840
      51.073000     -89.904000      12.119000   -0.03521008
      49.545000     -89.904000      11.622000   -0.04547498
      50.309000     -91.227000      11.622000    0.03342823
      51.837000     -91.228000      11.622000   -0.02961666
      49.073000     -91.357000      10.322000   -0.03984661
      50.309000     -92.256000      10.322000   -0.00130360
      50.309000     -92.256000       8.716000   -0.13871189
      51.201000     -86.616000      12.170000   -0.01165914
      50.426000     -87.958000      12.170000   -0.03461918
      50.294000     -86.098000      11.777000    0.01108681
      49.530000     -87.421000      11.777000   -0.02766398
      50.294000     -85.069000      10.477000   -0.04594125
      49.058000     -85.968000      10.477000   -0.00231397
      52.492000     -88.123000      13.016000    0.02376026
      54.020000     -88.123000      12.519000   -0.00043875
      53.256000     -86.800000      12.519000   -0.00797151
      51.728000     -86.800000      12.519000    0.00042487
      50.964000     -88.123000      12.519000   -0.01420936
      51.728000     -89.446000      12.519000   -0.02949552
      53.256000     -89.447000      12.519000   -0.03121582
      54.965000     -88.123000      11.219000   -0.07111527
      56.219000     -87.700000       9.105000    0.04244772
      56.219000     -87.700000       7.499000    0.03080480
      55.274000     -87.700000       6.199000   -0.06633095
      53.355000     -85.606000      12.603000    0.04189437
      54.743000     -85.606000      12.286000    0.06295796
      54.049000     -84.404000      12.286000    0.06832390
      52.661000     -84.404000      12.286000    0.05174417
      51.967000     -85.606000      12.286000    0.00912128
      54.049000     -86.808000      12.286000   -0.00612537
      55.857000     -85.606000      11.398000    0.06858800
      55.379000     -84.135000      11.398000    0.05541516
      54.128000     -83.227000      11.398000    0.02362411
      52.582000     -83.227000      11.398000    0.02649421
      51.331000     -84.135000      11.398000    0.01845815
      55.379000     -87.077000      11.398000    0.01152207
      56.475000     -85.606000      10.115000    0.05628403
      56.117000     -84.156000      10.115000    0.01155527
      51.020000     -83.537000      10.115000   -0.00290948
      50.326000     -84.859000      10.115000   -0.05979472
      56.117000     -87.056000      10.115000    0.03562088
      56.475000     -85.606000       8.691000    0.02197065
      51.601000     -82.495000       9.504000   -0.00314646
      56.459000     -84.524000       7.954000   -0.00867612
      55.618000     -83.073000       6.404000   -0.02035094
      52.977000     -81.867000       6.404000   -0.01505717
      54.134000     -83.182000       5.269000   -0.00671838
      56.458000     -84.956000       7.988000    0.00015392
      56.458000     -84.956000       6.382000    0.04719900
      55.985000     -83.503000       6.382000    0.00937126
      55.985000     -86.409000       6.382000    0.01020480
      55.513000     -84.956000       5.082000    0.03167075
      54.749000     -83.632000       5.082000    0.01124103
      53.221000     -86.279000       5.082000   -0.06260144
      54.749000     -86.280000       5.082000   -0.03074665
      53.985000     -84.956000       4.585000   -0.01983558
      54.509000     -82.232000      10.331000   -0.02798535
      52.981000     -82.232000      10.331000   -0.03195489
      56.218000     -83.555000       9.031000   -0.03890718
      55.745000     -82.102000       9.031000   -0.01129046
      54.509000     -81.203000       9.031000   -0.00351264
      52.981000     -81.203000       9.031000   -0.00681349
      51.745000     -82.102000       9.031000   -0.00782799
      55.745000     -82.102000       7.425000   -0.01058271
      54.509000     -81.203000       7.425000   -0.00552415
      52.981000     -81.203000       7.425000   -0.00904239
      54.509000     -82.231000       6.125000   -0.02253863
      51.584000     -82.063000       6.782000   -0.01104360
      53.925000     -89.033000       5.012000    0.04901360
      53.446000     -87.557000       5.012000    0.00558308
      52.190000     -91.422000       5.012000    0.12706939
      53.446000     -90.509000       5.012000    0.08523098
      52.864000     -89.033000       3.951000    0.21590847
      52.139000     -90.289000       3.951000    0.23088261
      51.414000     -89.033000       3.562000    0.10421495
      49.145000     -89.006000      11.195000   -0.15885042
      48.381000     -87.683000      10.698000   -0.11810670
      47.617000     -89.006000      10.698000   -0.06626004
      48.381000     -90.329000      10.698000   -0.07977250
      50.667000     -89.125000       3.554000   -0.07686113
      44.312000     -90.187000       6.739000   -0.06793824
      46.917000     -89.186000      10.306000   -0.00469360
      46.153000     -87.863000       9.809000    0.05695276
      45.389000     -89.186000       9.809000    0.06422304
      46.153000     -90.509000       9.809000    0.04567378
      44.917000     -87.733000       8.509000   -0.06997083
      44.444000     -89.186000       8.509000    0.00512189
      44.634000     -90.583000       5.164000    0.01029177
      45.107000     -89.130000       3.864000    0.06965867
      48.299000     -91.263000       9.924000    0.00099662
      47.535000     -92.586000       9.427000    0.11777946
      49.063000     -92.587000       9.427000    0.08356167
      50.299000     -92.716000       8.127000   -0.05467340
      45.058000     -91.446000       9.051000   -0.03257293
      45.822000     -92.769000       9.051000   -0.00253377
      44.113000     -91.446000       7.751000   -0.07532885
      44.586000     -92.899000       7.751000   -0.05140475
      45.822000     -93.798000       7.751000   -0.02103459
      44.113000     -91.446000       6.145000   -0.07054317
      44.585000     -92.899000       6.145000   -0.03651076
      45.822000     -93.798000       6.145000   -0.01759957
      45.536000     -93.425000       5.234000    0.04725259
      44.705000     -90.618000       4.294000    0.05019605
      50.116000     -90.618000       2.844000   -0.02538515
      45.094000     -90.618000       2.844000    0.09213292
      45.573000     -92.094000       2.844000    0.10725826
      49.055000     -90.618000       1.783000   -0.02264956
      48.330000     -89.362000       1.783000   -0.05058839
      46.880000     -89.362000       1.783000    0.12467475
      46.155000     -90.618000       1.783000    0.10349465
      46.880000     -91.874000       1.783000    0.05503162
      47.605000     -90.618000       1.394000    0.05280946
      51.353000     -92.531000       5.017000    0.00410150
      46.195000     -94.487000       5.017000    0.04865739
      51.015000     -93.902000       5.017000   -0.06596734
      50.552000     -91.150000       3.542000    0.03462192
      45.952000     -93.251000       3.542000    0.07907254
      50.119000     -93.132000       7.870000   -0.00782610
      47.827000     -94.455000       7.870000    0.04566378
      49.355000     -94.456000       7.870000    0.03369592
      51.064000     -93.132000       6.570000   -0.06226736
      46.590000     -94.585000       6.570000    0.00868193
      47.827000     -95.484000       6.570000    0.02675585
      49.355000     -95.484000       6.570000    0.01041280
      50.591000     -94.585000       6.570000   -0.02015125
      47.827000     -95.484000       4.964000   -0.02234606
      49.355000     -95.484000       4.964000   -0.05171189
      50.591000     -94.585000       4.964000   -0.07611578
      51.090000     -92.806000       3.300000   -0.03315899
      50.617000     -91.353000       3.300000    0.00812653
      46.617000     -94.259000       3.300000    0.01686408
      47.853000     -95.158000       3.300000   -0.02378166
      49.381000     -95.158000       3.300000   -0.04818567
      50.617000     -94.259000       3.300000   -0.05360233
      50.145000     -92.806000       2.000000   -0.04121000
      49.381000     -91.482000       2.000000   -0.05452062
      47.089000     -92.806000       2.000000    0.00350066
      47.853000     -94.129000       2.000000   -0.01351653
      49.381000     -94.130000       2.000000   -0.03283720
      48.617000     -92.806000       1.503000   -0.03086082
      45.254000     -89.010000       3.043000    0.15712873
      44.672000     -87.975000       1.593000    0.04453089
      45.928000     -88.888000       1.593000    0.21226085
      47.480000     -88.888000       1.593000    0.11001196
      45.979000     -87.755000       0.532000    0.08403054
      47.429000     -87.755000       0.532000    0.15414557
      46.704000     -86.499000       0.143000   -0.09269455
      47.391000     -82.167000       5.980000   -0.14913759
      47.391000     -81.138000       4.680000   -0.11107745
      45.863000     -81.138000       4.680000   -0.19213862
      47.391000     -81.138000       3.074000   -0.06852829
      43.759000     -84.192000      -0.313000    0.04390266
      46.739000     -85.139000      -0.240000   -0.10143936
      43.683000     -85.139000      -0.240000   -0.13079366
      44.447000     -86.462000      -0.240000   -0.20389383
      45.975000     -86.463000      -0.240000   -0.15360017
      45.211000     -85.139000      -0.737000   -0.05058635
      41.650000     -81.789000       3.025000   -0.16586301
      43.588000     -81.188000       1.475000    0.10028544
      44.826000     -80.559000       4.359000   -0.10830341
      43.298000     -80.559000       4.359000   -0.08694372
      42.062000     -81.458000       4.359000   -0.08966691
      44.826000     -80.559000       2.753000    0.06098708
      43.298000     -80.559000       2.753000   -0.03169721
      41.215000     -82.290000       3.069000   -0.14320413
      40.742000     -83.743000       3.069000   -0.07314052
      42.451000     -81.391000       1.463000   -0.05372564
      41.215000     -82.290000       1.463000   -0.11738814
      40.742000     -83.743000       1.463000   -0.12518830
      42.451000     -82.419000       0.163000   -0.00493202
      41.687000     -83.743000       0.163000   -0.10161130
      42.451000     -85.066000       0.163000   -0.15449134
      43.215000     -83.743000      -0.334000    0.02825307
      40.559000     -84.192000       3.993000    0.07976852
      39.973000     -85.370000       3.513000    0.11655469
      40.407000     -85.356000       1.963000    0.03362543
      44.098000     -88.554000       1.963000    0.03556588
      40.826000     -84.790000       1.650000   -0.08820337
      40.353000     -86.243000       1.650000    0.06501592
      40.826000     -87.696000       1.650000    0.01594534
      43.590000     -88.595000       1.650000   -0.00334714
      41.298000     -86.243000       0.350000    0.02049255
      42.062000     -87.566000       0.350000    0.02573928
      43.590000     -87.566000       0.350000   -0.06013176
      42.826000     -86.243000      -0.147000   -0.07444580
      39.591000     -86.377000       4.407000    0.07716179
      44.362000     -89.670000       4.407000   -0.04173895
      40.148000     -89.480000       4.839000   -0.03693046
      41.385000     -90.379000       4.839000   -0.06761675
      42.913000     -90.379000       4.839000   -0.10815845
      39.676000     -88.027000       3.233000    0.01545953
      40.148000     -89.480000       3.233000   -0.01013687
      41.385000     -90.379000       3.233000   -0.03816615
      42.913000     -90.379000       3.233000   -0.05822731
      40.621000     -88.027000       1.933000    0.00377423
      41.385000     -89.350000       1.933000   -0.01742720
      42.913000     -89.351000       1.933000   -0.02959911
      40.229000     -86.194000       7.331000   -0.00352115
      39.795000     -86.208000       5.781000    0.02877904
      39.795000     -87.692000       5.781000   -0.01325784
      42.510000     -87.728000       9.070000   -0.03978182
      40.982000     -87.728000       8.573000    0.05228987
      41.746000     -89.051000       8.573000    0.08665735
      43.274000     -89.051000       8.573000    0.01102234
      40.037000     -87.728000       7.273000    0.05304443
      40.509000     -89.181000       7.273000    0.08989875
      41.746000     -90.080000       7.273000    0.06514291
      43.274000     -90.080000       7.273000   -0.01297431
      41.746000     -90.080000       5.667000   -0.07696800
      43.274000     -90.080000       5.667000   -0.10171272
      41.633000     -83.745000       7.812000    0.03170964
      40.815000     -85.018000       7.812000   -0.00953001
      40.381000     -85.032000       6.262000    0.04177138
      43.547000     -85.644000       9.922000   -0.06084730
      45.075000     -85.644000       9.425000   -0.04402536
      44.311000     -84.321000       9.425000   -0.03929852
      42.783000     -84.321000       9.425000   -0.03109339
      42.019000     -85.644000       9.425000   -0.05751824
      42.783000     -86.967000       9.425000   -0.09015587
      44.311000     -86.967000       9.425000   -0.09280610
      45.547000     -84.191000       8.125000   -0.01442707
      42.783000     -83.292000       8.125000    0.00357750
      42.014000     -82.736000       6.918000    0.10123735
      41.452000     -82.709000       5.368000    0.07808279
      40.762000     -84.023000       5.368000    0.12081542
      45.752000     -83.857000       7.842000    0.00897988
      44.988000     -82.534000       7.842000    0.01544756
      43.460000     -82.534000       7.842000    0.04723087
      46.224000     -82.404000       6.542000   -0.13832802
      44.988000     -81.505000       6.542000   -0.05374781
      43.460000     -81.505000       6.542000    0.02059116
      46.313000     -81.071000       2.441000    0.12316733
      48.022000     -83.423000       0.835000   -0.20444569
      47.549000     -81.970000       0.835000    0.09830297
      46.313000     -81.071000       0.835000    0.29672529
      44.785000     -81.071000       0.835000    0.33339336
      47.077000     -83.423000      -0.465000    0.15839651
      46.313000     -82.099000      -0.465000    0.31904409
      44.785000     -82.099000      -0.465000    0.35593112
      44.021000     -83.423000      -0.465000    0.21202165
      45.549000     -83.423000      -0.962000    0.27189199

-H
S   2   1.00
      0.434473D+01           0.934643D-01
      0.660487D+00           0.500000D+00
S   1   1.00
      0.136687D+00           1.0000000
****
-C
S   4   1.00
      0.471525D+03           0.208506D-01
      0.711900D+02           0.144462D+00
      0.158860D+02           0.500000D+00
      0.416469D+01           0.628138D+00
S   1   1.00
      0.442581D+00           1.0000000
S   1   1.00
      0.142836D+00           1.0000000
P   3   1.00
      0.286787D+02           0.100084D-01
      0.441211D+01           0.118222D+00
      0.879860D+00           0.500000D+00
P   1   1.00
      0.192992D+00           1.0000000
****
-N
S   4   1.00
      0.653283D+03           0.205664D-01
      0.986100D+02           0.143088D+00
      0.220574D+02           0.500000D+00
      0.582324D+01           0.630731D+00
S   1   1.00
      0.637084D+00           1.0000000
S   1   1.00
      0.199637D+00           1.0000000
P   3   1.00
      0.410948D+02           0.100876D-01
      0.632227D+01           0.121807D+00
      0.128076D+01           0.500000D+00
P   1   1.00
      0.278950D+00           1.0000000
****
-O
S   4   1.00
      0.864900D+03           0.203617D-01
      0.130531D+03           0.142109D+00
      0.292551D+02           0.500000D+00
      0.776965D+01           0.633334D+00
S   1   1.00
      0.869788D+00           1.0000000
S   1   1.00
      0.269783D+00           1.0000000
P   3   1.00
      0.539859D+02           0.104916D-01
      0.830553D+01           0.127839D+00
      0.169516D+01           0.500000D+00
P   1   1.00
      0.357951D+00           1.0000000
****
-F
S   4   1.00
      0.110604D+04           0.202032D-01
      0.166903D+03           0.141343D+00
      0.374603D+02           0.500000D+00
      0.998992D+01           0.635147D+00
S   1   1.00
      0.113792D+01           1.0000000
S   1   1.00
      0.349083D+00           1.0000000
P   3   1.00
      0.696176D+02           0.106441D-01
      0.107104D+02           0.131030D+00
      0.219852D+01           0.500000D+00
P   1   1.00
      0.457687D+00           1.0000000
****
-Na
S   5   1.00
      0.409440D+04           0.595638D-02
      0.616161D+03           0.444531D-01
      0.139968D+03           0.197678D+00
      0.389011D+02           0.500000D+00
      0.120097D+02           0.436664D+00
S   2   1.00
      0.172063D+01           0.500000D+00
      0.546182D+00           0.340641D+00
S   1   1.00
      0.618218D-01           1.0000000
S   1   1.00
      0.264778D-01           1.0000000
P   5   1.00
      0.246605D+03           0.325530D-02
      0.379392D+02           0.512641D-01
      0.845240D+01           0.279342D+00
      0.233229D+01           0.586584D+00
      0.610084D+00           0.500000D+00
P   1   1.00
      0.950000D-01           1.0000000
****
-Mg
S   5   1.00
      0.493788D+04           0.588250D-02
      0.743048D+03           0.439409D-01
      0.168817D+03           0.196125D+00
      0.469828D+02           0.500000D+00
      0.145627D+02           0.442642D+00
S   2   1.00
      0.210737D+01           0.500000D+00
      0.709072D+00           0.322304D+00
S   1   1.00
      0.101738D+00           1.0000000
S   1   1.00
      0.377840D-01           1.0000000
P   5   1.00
      0.322425D+03           0.300073D-02
      0.496039D+02           0.482979D-01
      0.111546D+02           0.271054D+00
      0.313780D+01           0.593673D+00
      0.862606D+00           0.500000D+00
P   1   1.00
      0.160000D+00           1.0000000
****
-Si
S   5   1.00
      0.688979D+04           0.575602D-02
      0.103666D+04           0.430617D-01
      0.235585D+03           0.193412D+00
      0.657179D+02           0.500000D+00
      0.205024D+02           0.454845D+00
S   2   1.00
      0.299923D+01           0.500000D+00
      0.107285D+01           0.274560D+00
S   1   1.00
      0.226894D+00           1.0000000
S   1   1.00
      0.835919D-01           1.0000000
P   5   1.00
      0.618870D+03           0.161974D-02
      0.952108D+02           0.277243D-01
      0.219365D+02           0.172434D+00
      0.649738D+01           0.454958D+00
      0.200767D+01           0.500000D+00
P   1   1.00
      0.481100D+00           1.0000000
P   1   1.00
      0.120218D+00           1.0000000
****
-P
S   5   1.00
      0.798861D+04           0.570562D-02
      0.120192D+04           0.427118D-01
      0.273161D+03           0.192333D+00
      0.762657D+02           0.500000D+00
      0.238570D+02           0.459677D+00
S   2   1.00
      0.350611D+01           0.500000D+00
      0.126861D+01           0.253994D+00
S   1   1.00
      0.300248D+00           1.0000000
S   1   1.00
      0.109045D+00           1.0000000
P   5   1.00
      0.734958D+03           0.159537D-02
      0.113070D+03           0.275037D-01
      0.261165D+02           0.173028D+00
      0.777601D+01           0.461830D+00
      0.243759D+01           0.500000D+00
P   1   1.00
      0.576178D+00           1.0000000
P   1   1.00
      0.152688D+00           1.0000000
****
-S
S   5   1.00
      0.917104D+04           0.566118D-02
      0.137977D+04           0.424022D-01
      0.313601D+03           0.191374D+00
      0.876232D+02           0.500000D+00
      0.274763D+02           0.464087D+00
S   2   1.00
      0.405605D+01           0.500000D+00
      0.147491D+01           0.236690D+00
S   1   1.00
      0.383989D+00           1.0000000
S   1   1.00
      0.138619D+00           1.0000000
P   5   1.00
      0.863401D+03           0.156686D-02
      0.132831D+03           0.271886D-01
      0.307489D+02           0.172897D+00
      0.919940D+01           0.466899D+00
      0.292129D+01           0.500000D+00
P   1   1.00
      0.690074D+00           1.0000000
P   1   1.00
      0.180666D+00           1.0000000
****
-Cl
S   5   1.00
      0.104359D+05           0.562223D-02
      0.157002D+04           0.421306D-01
      0.356863D+03           0.190529D+00
      0.997786D+02           0.500000D+00
      0.313557D+02           0.468034D+00
S   2   1.00
      0.464874D+01           0.500000D+00
      0.169061D+01           0.222192D+00
S   1   1.00
      0.476585D+00           1.0000000
S   1   1.00
      0.170974D+00           1.0000000
P   5   1.00
      0.100918D+04           0.151895D-02
      0.155259D+03           0.265288D-01
      0.360186D+02           0.170633D+00
      0.108279D+02           0.467436D+00
      0.348178D+01           0.500000D+00
P   1   1.00
      0.839567D+00           1.0000000
P   1   1.00
      0.218893D+00           1.0000000
****
-K
S   5   1.00
      0.130832D+05           0.559126D-02
      0.196823D+04           0.419170D-01
      0.447410D+03           0.189941D+00
      0.125228D+03           0.500000D+00
      0.395119D+02           0.467990D+00
S   2   1.00
      0.597289D+01           0.500000D+00
      0.217856D+01           0.200243D+00
S   2   1.00
      0.666023D+00           0.500000D+00
      0.245475D+00           0.238315D+00
S   1   1.00
      0.460449D-01           1.0000000
S   1   1.00
      0.227000D-01           1.0000000
P   5   1.00
      0.136382D+04           0.137277D-02
      0.209819D+03           0.242911D-01
      0.488776D+02           0.160133D+00
      0.148326D+02           0.454837D+00