! OLYP pcSseg-0 TightSCF RI KDIIS 

%pointcharges "1d3z1003.pos"

%output
  PrintLevel Mini
  Print [ P_Cartesian ] 0
  Print [ P_Internal ] 0
  Print [ P_Basis ] 0
  Print [ P_Mulliken ] 0
  Print [ P_Loewdin ] 0
  Print [ P_Mayer ] 0
  Print [ P_OrbEn ] 0
  end

%scf
  SOSCF Start 0.001 MaxIt 40 end
  DIISMaxEq 15
  directresetfreq 1
  end

* xyz   1   1
 C       48.3930  -87.2460    6.3650
 O       48.1990  -86.5060    7.3320
 N       48.3410  -86.8330    5.0970
 H       48.4740  -87.4840    4.3790
 C       48.0490  -85.4510    4.7320
 H       47.6590  -84.9290    5.5970
 C       49.3150  -84.7250    4.2580
 H       49.0630  -83.6960    4.0430
 C       50.3620  -84.7540    5.3760
 H       49.9660  -84.2640    6.2530
 H       51.2540  -84.2400    5.0490
 H       50.6060  -85.7790    5.6170
 C       49.8950  -85.3980    3.0090
 H       50.3330  -86.3460    3.2820
 H       49.1120  -85.5580    2.2860
 C       50.9690  -84.4990    2.3890
 H       50.4970  -83.7460    1.7790
 H       51.6270  -85.0970    1.7770
 H       51.5430  -84.0210    3.1720
 N       52.9230  -90.0160    8.5090
 H       52.7210  -91.0190    8.3280
 H       53.5810  -89.9330    9.3110
 H       53.3520  -89.5920    7.6630
 C       51.6530  -89.3040    8.8330
 H       51.0730  -89.9040    9.5190
 C       51.9760  -87.9580    9.4850
 H       51.0580  -87.4210    9.6740
 H       52.4920  -88.1230   10.4160
 C       52.8640  -87.1310    8.5570
 H       53.7460  -87.7000    8.3020
 H       52.3190  -86.8870    7.6570
 S       53.3550  -85.6060    9.4030
 C       53.3590  -84.5240    7.9540
 H       53.9850  -84.9560    7.1850
 H       53.7450  -83.5550    8.2280
 H       52.3480  -84.4150    7.5850
 C       50.8510  -89.0860    7.5560
 O       51.4140  -89.0330    6.4620
 N       49.5350  -88.9530    7.6980
 H       49.1450  -89.0060    8.5950
 C       48.6640  -88.7330    6.5440
 H       49.1390  -89.1250    5.6570
 C       47.3220  -89.4450    6.7390
 H       46.9170  -89.1860    7.7060
 H       46.6350  -89.1300    5.9670
 C       47.5060  -90.9600    6.6580
 H       48.2990  -91.2630    7.3240
 H       46.5860  -91.4460    6.9480
 C       47.8560  -91.3690    5.2340
 O       47.6050  -90.6180    4.2940
 N       48.4030  -92.5310    5.0170
 H       48.5910  -93.1320    5.7670
 H       48.6170  -92.8060    4.1030
 C       46.9700  -85.4580    3.6490
 O       46.7040  -86.4990    3.0430
 N       46.3570  -84.2950    3.3990
 H       46.6270  -83.4900    3.8770
 C       45.3090  -84.1920    2.3720
 H       45.2110  -85.1390    1.8630
 C       43.9700  -83.8450    3.0250
 H       44.0620  -82.9110    3.5560
 H       43.2150  -83.7430    2.2660
 C       43.5690  -84.9340    3.9930
 C       42.9830  -86.1120    3.5130
 H       42.8260  -86.2430    2.4530
 C       42.6010  -87.1190    4.4070
 H       42.1490  -88.0270    4.0360
 C       42.8050  -86.9500    5.7810
 H       42.5100  -87.7280    6.4700
 C       43.3910  -85.7740    6.2620
 H       43.5470  -85.6440    7.3220
 C       43.7720  -84.7650    5.3680
 H       44.2240  -83.8570    5.7390
 H       45.5490  -83.4229    1.6379
*
%eprnmr  ori GIAO
   nuclei = 1,  2,  3,  4,  5,  6,  7,  8,  9, 10, 11, 12, 13, 14, 15, 16, 17, 18, 19 {shift}
end
