%mem=800mw
%nprocshared=4
# OLYP/Gen charge nosymm nmr(printeigenvectors) integral(grid=ultrafine)

 AF-NMR fragment for residue    3; version = 1.6; nbcut =  3.30

   1   1
 C       48.3930  -87.2460    6.3650
 O       48.1990  -86.5060    7.3320
 N       48.3410  -86.8330    5.0970
 H       48.4740  -87.4840    4.3790
 C       48.0490  -85.4510    4.7320
 H       47.6590  -84.9290    5.5970
 C       49.3150  -84.7250    4.2580
 H       49.0630  -83.6960    4.0430
 C       50.3620  -84.7540    5.3760
 H       49.9660  -84.2640    6.2530
 H       51.2540  -84.2400    5.0490
 H       50.6060  -85.7790    5.6170
 C       49.8950  -85.3980    3.0090
 H       50.3330  -86.3460    3.2820
 H       49.1120  -85.5580    2.2860
 C       50.9690  -84.4990    2.3890
 H       50.4970  -83.7460    1.7790
 H       51.6270  -85.0970    1.7770
 H       51.5430  -84.0210    3.1720
 N       52.9230  -90.0160    8.5090
 H       52.7210  -91.0190    8.3280
 H       53.5810  -89.9330    9.3110
 H       53.3520  -89.5920    7.6630
 C       51.6530  -89.3040    8.8330
 H       51.0730  -89.9040    9.5190
 C       51.9760  -87.9580    9.4850
 H       51.0580  -87.4210    9.6740
 H       52.4920  -88.1230   10.4160
 C       52.8640  -87.1310    8.5570
 H       53.7460  -87.7000    8.3020
 H       52.3190  -86.8870    7.6570
 S       53.3550  -85.6060    9.4030
 C       53.3590  -84.5240    7.9540
 H       53.9850  -84.9560    7.1850
 H       53.7450  -83.5550    8.2280
 H       52.3480  -84.4150    7.5850
 C       50.8510  -89.0860    7.5560
 O       51.4140  -89.0330    6.4620
 N       49.5350  -88.9530    7.6980
 H       49.1450  -89.0060    8.5950
 C       48.6640  -88.7330    6.5440
 H       49.1390  -89.1250    5.6570
 C       47.3220  -89.4450    6.7390
 H       46.9170  -89.1860    7.7060
 H       46.6350  -89.1300    5.9670
 C       47.5060  -90.9600    6.6580
 H       48.2990  -91.2630    7.3240
 H       46.5860  -91.4460    6.9480
 C       47.8560  -91.3690    5.2340
 O       47.6050  -90.6180    4.2940
 N       48.4030  -92.5310    5.0170
 H       48.5910  -93.1320    5.7670
 H       48.6170  -92.8060    4.1030
 C       46.9700  -85.4580    3.6490
 O       46.7040  -86.4990    3.0430
 N       46.3570  -84.2950    3.3990
 H       46.6270  -83.4900    3.8770
 C       45.3090  -84.1920    2.3720
 H       45.2110  -85.1390    1.8630
 C       43.9700  -83.8450    3.0250
 H       44.0620  -82.9110    3.5560
 H       43.2150  -83.7430    2.2660
 C       43.5690  -84.9340    3.9930
 C       42.9830  -86.1120    3.5130
 H       42.8260  -86.2430    2.4530
 C       42.6010  -87.1190    4.4070
 H       42.1490  -88.0270    4.0360
 C       42.8050  -86.9500    5.7810
 H       42.5100  -87.7280    6.4700
 C       43.3910  -85.7740    6.2620
 H       43.5470  -85.6440    7.3220
 C       43.7720  -84.7650    5.3680
 H       44.2240  -83.8570    5.7390
 H       45.5490  -83.4229    1.6379

      48.199000     -86.506000      10.232000    0.02712634
      48.647000     -85.127000       9.843000    0.10632554
      47.026000     -85.654000       9.843000    0.16569659
      47.026000     -87.358000       9.843000    0.05199027
      48.975000     -84.117000       8.782000    0.08060191
      47.423000     -84.117000       8.782000    0.19929076
      46.167000     -85.030000       8.782000    0.12174795
      45.688000     -86.506000       8.782000    0.02072200
      49.238000     -88.808000       2.276000   -0.27817537
      46.895000     -83.606000       7.700000    0.13671931
      46.895000     -82.577000       6.400000   -0.13123289
      49.827000     -81.344000       4.846000    0.05606256
      48.299000     -81.344000       4.846000   -0.04098412
      49.827000     -81.344000       3.240000    0.03601949
      48.299000     -81.344000       3.240000   -0.06606067
      50.736000     -81.677000       5.376000    0.00860641
      49.966000     -84.264000       8.853000   -0.03958488
      49.202000     -82.941000       8.356000    0.00309729
      50.730000     -81.912000       7.056000   -0.03053130
      49.202000     -81.912000       7.056000   -0.03341978
      52.018000     -81.888000       5.852000    0.00599868
      53.254000     -85.693000       4.246000   -0.00288301
      49.513000     -88.055000       1.459000   -0.06578010
      52.806000     -86.346000       4.085000    0.04035796
      51.097000     -88.698000       2.479000   -0.05167894
      52.333000     -87.799000       2.479000    0.01043857
      51.097000     -87.670000       1.179000   -0.01055711
      48.348000     -84.234000       0.183000   -0.09981099
      47.584000     -85.558000       0.183000   -0.10913727
      48.348000     -86.881000       0.183000    0.08833962
      49.876000     -86.882000       0.183000    0.07909311
      49.112000     -85.558000      -0.314000    0.04993122
      53.227000     -85.950000       3.939000   -0.00053235
      53.228000     -83.048000       0.839000   -0.00861930
      50.194000     -85.841000      -0.296000    0.03315957
      50.969000     -84.499000      -0.711000   -0.03191306
      51.261000     -81.394000       2.582000   -0.00846316
      49.733000     -81.394000       2.582000   -0.01440403
      51.261000     -81.394000       0.976000    0.00460759
      49.733000     -81.394000       0.976000   -0.01503399
      48.497000     -82.293000       0.976000   -0.09503568
      51.261000     -82.423000      -0.324000    0.00055612
      49.733000     -82.423000      -0.324000   -0.00602974
      48.969000     -83.746000      -0.324000   -0.03577250
      50.497000     -83.746000      -0.821000   -0.01015834
      54.100000     -85.097000       2.580000   -0.03483324
      53.627000     -86.550000       2.580000   -0.01752551
      54.100000     -85.097000       0.974000   -0.00461476
      53.627000     -83.644000       0.974000   -0.01907995
      52.391000     -87.449000       0.974000   -0.00631545
      53.627000     -86.550000       0.974000   -0.00319039
      53.155000     -85.097000      -0.326000    0.00559257
      52.391000     -83.773000      -0.326000   -0.03117723
      50.863000     -86.420000      -0.326000    0.02614811
      52.391000     -86.421000      -0.326000    0.01118879
      51.627000     -85.097000      -0.823000   -0.00205579
      54.016000     -84.021000       3.975000   -0.01821076
      53.543000     -82.568000       3.975000    0.00143054
      52.307000     -81.669000       3.975000    0.01475370
      50.779000     -81.669000       3.975000    0.03648042
      53.543000     -85.474000       3.975000   -0.01997224
      53.543000     -82.568000       2.369000    0.00889993
      52.307000     -81.669000       2.369000   -0.00014473
      51.957000     -92.342000      10.431000   -0.04118761
      53.485000     -92.342000      10.431000   -0.03891864
      50.721000     -92.472000       9.131000   -0.10498852
      51.957000     -93.371000       9.131000    0.01176229
      53.485000     -93.371000       9.131000    0.04289253
      54.721000     -92.472000       9.131000   -0.02753753
      50.721000     -92.472000       7.525000   -0.13737049
      51.957000     -93.371000       7.525000   -0.02181300
      53.485000     -93.371000       7.525000    0.02692909
      54.721000     -92.472000       7.525000   -0.04123500
      51.957000     -92.342000       6.225000   -0.05725812
      53.485000     -92.342000       6.225000   -0.04269003
      55.109000     -89.933000      11.414000   -0.03757760
      52.817000     -91.256000      11.414000   -0.09115151
      54.345000     -91.257000      11.414000   -0.02527471
      56.054000     -89.933000      10.114000   -0.03534562
      55.581000     -88.480000      10.114000   -0.06519105
      54.345000     -92.285000      10.114000   -0.03030280
      55.581000     -91.386000      10.114000   -0.02077534
      56.054000     -89.933000       8.508000   -0.13485683
      55.581000     -91.386000       8.508000   -0.12081150
      55.825000     -89.592000       6.860000   -0.14713705
      55.352000     -91.045000       6.860000   -0.16477825
      54.880000     -89.592000       5.560000   -0.09928371
      54.116000     -88.269000       5.560000   -0.09416575
      54.116000     -90.916000       5.560000   -0.07786837
      51.073000     -89.904000      12.119000   -0.03520935
      49.545000     -89.904000      11.622000   -0.04547458
      50.309000     -91.227000      11.622000    0.03342925
      51.837000     -91.228000      11.622000   -0.02961579
      49.073000     -91.357000      10.322000   -0.03984630
      50.309000     -92.256000      10.322000   -0.00130316
      50.309000     -92.256000       8.716000   -0.13871550
      51.201000     -86.616000      12.170000   -0.01165791
      50.426000     -87.958000      12.170000   -0.03461882
      50.294000     -86.098000      11.777000    0.01108740
      49.530000     -87.421000      11.777000   -0.02766432
      50.294000     -85.069000      10.477000   -0.04594089
      49.058000     -85.968000      10.477000   -0.00231485
      52.492000     -88.123000      13.016000    0.02375977
      54.020000     -88.123000      12.519000   -0.00043947
      53.256000     -86.800000      12.519000   -0.00797124
      51.728000     -86.800000      12.519000    0.00042560
      50.964000     -88.123000      12.519000   -0.01420913
      51.728000     -89.446000      12.519000   -0.02949569
      53.256000     -89.447000      12.519000   -0.03121685
      54.965000     -88.123000      11.219000   -0.07111557
      56.219000     -87.700000       9.105000    0.04244806
      56.219000     -87.700000       7.499000    0.03080499
      55.274000     -87.700000       6.199000   -0.06633098
      53.355000     -85.606000      12.603000    0.04189418
      54.743000     -85.606000      12.286000    0.06295744
      54.049000     -84.404000      12.286000    0.06832336
      52.661000     -84.404000      12.286000    0.05174390
      51.967000     -85.606000      12.286000    0.00912181
      54.049000     -86.808000      12.286000   -0.00612532
      55.857000     -85.606000      11.398000    0.06858755
      55.379000     -84.135000      11.398000    0.05541480
      54.128000     -83.227000      11.398000    0.02362398
      52.582000     -83.227000      11.398000    0.02649412
      51.331000     -84.135000      11.398000    0.01845822
      55.379000     -87.077000      11.398000    0.01152191
      56.475000     -85.606000      10.115000    0.05628401
      56.117000     -84.156000      10.115000    0.01155554
      51.020000     -83.537000      10.115000   -0.00290939
      50.326000     -84.859000      10.115000   -0.05979462
      56.117000     -87.056000      10.115000    0.03562109
      56.475000     -85.606000       8.691000    0.02197137
      51.601000     -82.495000       9.504000   -0.00314633
      56.459000     -84.524000       7.954000   -0.00867546
      55.618000     -83.073000       6.404000   -0.02035075
      52.977000     -81.867000       6.404000   -0.01505699
      54.134000     -83.182000       5.269000   -0.00671823
      56.458000     -84.956000       7.988000    0.00015463
      56.458000     -84.956000       6.382000    0.04719861
      55.985000     -83.503000       6.382000    0.00937119
      55.985000     -86.409000       6.382000    0.01020473
      55.513000     -84.956000       5.082000    0.03167017
      54.749000     -83.632000       5.082000    0.01124087
      53.221000     -86.279000       5.082000   -0.06260272
      54.749000     -86.280000       5.082000   -0.03074711
      53.985000     -84.956000       4.585000   -0.01983571
      54.509000     -82.232000      10.331000   -0.02798531
      52.981000     -82.232000      10.331000   -0.03195466
      56.218000     -83.555000       9.031000   -0.03890656
      55.745000     -82.102000       9.031000   -0.01129069
      54.509000     -81.203000       9.031000   -0.00351312
      52.981000     -81.203000       9.031000   -0.00681380
      51.745000     -82.102000       9.031000   -0.00782793
      55.745000     -82.102000       7.425000   -0.01058291
      54.509000     -81.203000       7.425000   -0.00552454
      52.981000     -81.203000       7.425000   -0.00904258
      54.509000     -82.231000       6.125000   -0.02253848
      51.584000     -82.063000       6.782000   -0.01104345
      53.925000     -89.033000       5.012000    0.04901435
      53.446000     -87.557000       5.012000    0.00558307
      52.190000     -91.422000       5.012000    0.12706835
      53.446000     -90.509000       5.012000    0.08523146
      52.864000     -89.033000       3.951000    0.21590999
      52.139000     -90.289000       3.951000    0.23088373
      51.414000     -89.033000       3.562000    0.10421611
      49.145000     -89.006000      11.195000   -0.15885110
      48.381000     -87.683000      10.698000   -0.11810833
      47.617000     -89.006000      10.698000   -0.06626049
      48.381000     -90.329000      10.698000   -0.07977244
      50.667000     -89.125000       3.554000   -0.07686067
      44.312000     -90.187000       6.739000   -0.06793929
      46.917000     -89.186000      10.306000   -0.00469377
      46.153000     -87.863000       9.809000    0.05695264
      45.389000     -89.186000       9.809000    0.06422272
      46.153000     -90.509000       9.809000    0.04567426
      44.917000     -87.733000       8.509000   -0.06996991
      44.444000     -89.186000       8.509000    0.00512176
      44.634000     -90.583000       5.164000    0.01029123
      45.107000     -89.130000       3.864000    0.06965913
      48.299000     -91.263000       9.924000    0.00099801
      47.535000     -92.586000       9.427000    0.11778279
      49.063000     -92.587000       9.427000    0.08356347
      50.299000     -92.716000       8.127000   -0.05467494
      45.058000     -91.446000       9.051000   -0.03257360
      45.822000     -92.769000       9.051000   -0.00253353
      44.113000     -91.446000       7.751000   -0.07533032
      44.586000     -92.899000       7.751000   -0.05140612
      45.822000     -93.798000       7.751000   -0.02103443
      44.113000     -91.446000       6.145000   -0.07054432
      44.585000     -92.899000       6.145000   -0.03651179
      45.822000     -93.798000       6.145000   -0.01759902
      45.536000     -93.425000       5.234000    0.04725300
      44.705000     -90.618000       4.294000    0.05019612
      50.116000     -90.618000       2.844000   -0.02538446
      45.094000     -90.618000       2.844000    0.09213306
      45.573000     -92.094000       2.844000    0.10725846
      49.055000     -90.618000       1.783000   -0.02264962
      48.330000     -89.362000       1.783000   -0.05058936
      46.880000     -89.362000       1.783000    0.12467438
      46.155000     -90.618000       1.783000    0.10349449
      46.880000     -91.874000       1.783000    0.05503173
      47.605000     -90.618000       1.394000    0.05280917
      51.353000     -92.531000       5.017000    0.00410066
      46.195000     -94.487000       5.017000    0.04865771
      51.015000     -93.902000       5.017000   -0.06596739
      50.552000     -91.150000       3.542000    0.03462291
      45.952000     -93.251000       3.542000    0.07907311
      50.119000     -93.132000       7.870000   -0.00782557
      47.827000     -94.455000       7.870000    0.04566584
      49.355000     -94.456000       7.870000    0.03369720
      51.064000     -93.132000       6.570000   -0.06226849
      46.590000     -94.585000       6.570000    0.00868283
      47.827000     -95.484000       6.570000    0.02675608
      49.355000     -95.484000       6.570000    0.01041278
      50.591000     -94.585000       6.570000   -0.02015123
      47.827000     -95.484000       4.964000   -0.02234602
      49.355000     -95.484000       4.964000   -0.05171203
      50.591000     -94.585000       4.964000   -0.07611578
      51.090000     -92.806000       3.300000   -0.03315896
      50.617000     -91.353000       3.300000    0.00812733
      46.617000     -94.259000       3.300000    0.01686423
      47.853000     -95.158000       3.300000   -0.02378194
      49.381000     -95.158000       3.300000   -0.04818609
      50.617000     -94.259000       3.300000   -0.05360263
      50.145000     -92.806000       2.000000   -0.04121012
      49.381000     -91.482000       2.000000   -0.05452013
      47.089000     -92.806000       2.000000    0.00350094
      47.853000     -94.129000       2.000000   -0.01351688
      49.381000     -94.130000       2.000000   -0.03283768
      48.617000     -92.806000       1.503000   -0.03086090
      45.254000     -89.010000       3.043000    0.15712940
      44.672000     -87.975000       1.593000    0.04453178
      45.928000     -88.888000       1.593000    0.21226093
      47.480000     -88.888000       1.593000    0.11001121
      45.979000     -87.755000       0.532000    0.08403067
      47.429000     -87.755000       0.532000    0.15414531
      46.704000     -86.499000       0.143000   -0.09269409
      47.391000     -82.167000       5.980000   -0.14913843
      47.391000     -81.138000       4.680000   -0.11107776
      45.863000     -81.138000       4.680000   -0.19213822
      47.391000     -81.138000       3.074000   -0.06852806
      43.759000     -84.192000      -0.313000    0.04390271
      46.739000     -85.139000      -0.240000   -0.10143918
      43.683000     -85.139000      -0.240000   -0.13079366
      44.447000     -86.462000      -0.240000   -0.20389412
      45.975000     -86.463000      -0.240000   -0.15360028
      45.211000     -85.139000      -0.737000   -0.05058705
      41.650000     -81.789000       3.025000   -0.16586245
      43.588000     -81.188000       1.475000    0.10028601
      44.826000     -80.559000       4.359000   -0.10830331
      43.298000     -80.559000       4.359000   -0.08694387
      42.062000     -81.458000       4.359000   -0.08966691
      44.826000     -80.559000       2.753000    0.06098719
      43.298000     -80.559000       2.753000   -0.03169713
      41.215000     -82.290000       3.069000   -0.14320379
      40.742000     -83.743000       3.069000   -0.07314065
      42.451000     -81.391000       1.463000   -0.05372513
      41.215000     -82.290000       1.463000   -0.11738791
      40.742000     -83.743000       1.463000   -0.12518813
      42.451000     -82.419000       0.163000   -0.00493180
      41.687000     -83.743000       0.163000   -0.10161105
      42.451000     -85.066000       0.163000   -0.15449068
      43.215000     -83.743000      -0.334000    0.02825328
      40.559000     -84.192000       3.993000    0.07976780
      39.973000     -85.370000       3.513000    0.11655414
      40.407000     -85.356000       1.963000    0.03362506
      44.098000     -88.554000       1.963000    0.03556675
      40.826000     -84.790000       1.650000   -0.08820315
      40.353000     -86.243000       1.650000    0.06501547
      40.826000     -87.696000       1.650000    0.01594522
      43.590000     -88.595000       1.650000   -0.00334651
      41.298000     -86.243000       0.350000    0.02049214
      42.062000     -87.566000       0.350000    0.02573890
      43.590000     -87.566000       0.350000   -0.06013177
      42.826000     -86.243000      -0.147000   -0.07444595
      39.591000     -86.377000       4.407000    0.07716186
      44.362000     -89.670000       4.407000   -0.04173819
      40.148000     -89.480000       4.839000   -0.03693055
      41.385000     -90.379000       4.839000   -0.06761671
      42.913000     -90.379000       4.839000   -0.10815781
      39.676000     -88.027000       3.233000    0.01545917
      40.148000     -89.480000       3.233000   -0.01013754
      41.385000     -90.379000       3.233000   -0.03816662
      42.913000     -90.379000       3.233000   -0.05822712
      40.621000     -88.027000       1.933000    0.00377401
      41.385000     -89.350000       1.933000   -0.01742763
      42.913000     -89.351000       1.933000   -0.02959886
      40.229000     -86.194000       7.331000   -0.00352073
      39.795000     -86.208000       5.781000    0.02877966
      39.795000     -87.692000       5.781000   -0.01325708
      42.510000     -87.728000       9.070000   -0.03978184
      40.982000     -87.728000       8.573000    0.05228956
      41.746000     -89.051000       8.573000    0.08665683
      43.274000     -89.051000       8.573000    0.01102229
      40.037000     -87.728000       7.273000    0.05304449
      40.509000     -89.181000       7.273000    0.08989839
      41.746000     -90.080000       7.273000    0.06514256
      43.274000     -90.080000       7.273000   -0.01297449
      41.746000     -90.080000       5.667000   -0.07696735
      43.274000     -90.080000       5.667000   -0.10171193
      41.633000     -83.745000       7.812000    0.03170943
      40.815000     -85.018000       7.812000   -0.00952998
      40.381000     -85.032000       6.262000    0.04177192
      43.547000     -85.644000       9.922000   -0.06084804
      45.075000     -85.644000       9.425000   -0.04402511
      44.311000     -84.321000       9.425000   -0.03929898
      42.783000     -84.321000       9.425000   -0.03109428
      42.019000     -85.644000       9.425000   -0.05751897
      42.783000     -86.967000       9.425000   -0.09015613
      44.311000     -86.967000       9.425000   -0.09280599
      45.547000     -84.191000       8.125000   -0.01442619
      42.783000     -83.292000       8.125000    0.00357742
      42.014000     -82.736000       6.918000    0.10123724
      41.452000     -82.709000       5.368000    0.07808245
      40.762000     -84.023000       5.368000    0.12081515
      45.752000     -83.857000       7.842000    0.00898057
      44.988000     -82.534000       7.842000    0.01544762
      43.460000     -82.534000       7.842000    0.04723082
      46.224000     -82.404000       6.542000   -0.13832808
      44.988000     -81.505000       6.542000   -0.05374771
      43.460000     -81.505000       6.542000    0.02059110
      46.313000     -81.071000       2.441000    0.12316759
      48.022000     -83.423000       0.835000   -0.20444402
      47.549000     -81.970000       0.835000    0.09830311
      46.313000     -81.071000       0.835000    0.29672457
      44.785000     -81.071000       0.835000    0.33339284
      47.077000     -83.423000      -0.465000    0.15839611
      46.313000     -82.099000      -0.465000    0.31904301
      44.785000     -82.099000      -0.465000    0.35593011
      44.021000     -83.423000      -0.465000    0.21202132
      45.549000     -83.423000      -0.962000    0.27189089

-H
S   2   1.00
      0.434473D+01           0.934643D-01
      0.660487D+00           0.500000D+00
S   1   1.00
      0.136687D+00           1.0000000
****
-C
S   4   1.00
      0.471525D+03           0.208506D-01
      0.711900D+02           0.144462D+00
      0.158860D+02           0.500000D+00
      0.416469D+01           0.628138D+00
S   1   1.00
      0.442581D+00           1.0000000
S   1   1.00
      0.142836D+00           1.0000000
P   3   1.00
      0.286787D+02           0.100084D-01
      0.441211D+01           0.118222D+00
      0.879860D+00           0.500000D+00
P   1   1.00
      0.192992D+00           1.0000000
****
-N
S   4   1.00
      0.653283D+03           0.205664D-01
      0.986100D+02           0.143088D+00
      0.220574D+02           0.500000D+00
      0.582324D+01           0.630731D+00
S   1   1.00
      0.637084D+00           1.0000000
S   1   1.00
      0.199637D+00           1.0000000
P   3   1.00
      0.410948D+02           0.100876D-01
      0.632227D+01           0.121807D+00
      0.128076D+01           0.500000D+00
P   1   1.00
      0.278950D+00           1.0000000
****
-O
S   4   1.00
      0.864900D+03           0.203617D-01
      0.130531D+03           0.142109D+00
      0.292551D+02           0.500000D+00
      0.776965D+01           0.633334D+00
S   1   1.00
      0.869788D+00           1.0000000
S   1   1.00
      0.269783D+00           1.0000000
P   3   1.00
      0.539859D+02           0.104916D-01
      0.830553D+01           0.127839D+00
      0.169516D+01           0.500000D+00
P   1   1.00
      0.357951D+00           1.0000000
****
-F
S   4   1.00
      0.110604D+04           0.202032D-01
      0.166903D+03           0.141343D+00
      0.374603D+02           0.500000D+00
      0.998992D+01           0.635147D+00
S   1   1.00
      0.113792D+01           1.0000000
S   1   1.00
      0.349083D+00           1.0000000
P   3   1.00
      0.696176D+02           0.106441D-01
      0.107104D+02           0.131030D+00
      0.219852D+01           0.500000D+00
P   1   1.00
      0.457687D+00           1.0000000
****
-Na
S   5   1.00
      0.409440D+04           0.595638D-02
      0.616161D+03           0.444531D-01
      0.139968D+03           0.197678D+00
      0.389011D+02           0.500000D+00
      0.120097D+02           0.436664D+00
S   2   1.00
      0.172063D+01           0.500000D+00
      0.546182D+00           0.340641D+00
S   1   1.00
      0.618218D-01           1.0000000
S   1   1.00
      0.264778D-01           1.0000000
P   5   1.00
      0.246605D+03           0.325530D-02
      0.379392D+02           0.512641D-01
      0.845240D+01           0.279342D+00
      0.233229D+01           0.586584D+00
      0.610084D+00           0.500000D+00
P   1   1.00
      0.950000D-01           1.0000000
****
-Mg
S   5   1.00
      0.493788D+04           0.588250D-02
      0.743048D+03           0.439409D-01
      0.168817D+03           0.196125D+00
      0.469828D+02           0.500000D+00
      0.145627D+02           0.442642D+00
S   2   1.00
      0.210737D+01           0.500000D+00
      0.709072D+00           0.322304D+00
S   1   1.00
      0.101738D+00           1.0000000
S   1   1.00
      0.377840D-01           1.0000000
P   5   1.00
      0.322425D+03           0.300073D-02
      0.496039D+02           0.482979D-01
      0.111546D+02           0.271054D+00
      0.313780D+01           0.593673D+00
      0.862606D+00           0.500000D+00
P   1   1.00
      0.160000D+00           1.0000000
****
-Si
S   5   1.00
      0.688979D+04           0.575602D-02
      0.103666D+04           0.430617D-01
      0.235585D+03           0.193412D+00
      0.657179D+02           0.500000D+00
      0.205024D+02           0.454845D+00
S   2   1.00
      0.299923D+01           0.500000D+00
      0.107285D+01           0.274560D+00
S   1   1.00
      0.226894D+00           1.0000000
S   1   1.00
      0.835919D-01           1.0000000
P   5   1.00
      0.618870D+03           0.161974D-02
      0.952108D+02           0.277243D-01
      0.219365D+02           0.172434D+00
      0.649738D+01           0.454958D+00
      0.200767D+01           0.500000D+00
P   1   1.00
      0.481100D+00           1.0000000
P   1   1.00
      0.120218D+00           1.0000000
****
-P
S   5   1.00
      0.798861D+04           0.570562D-02
      0.120192D+04           0.427118D-01
      0.273161D+03           0.192333D+00
      0.762657D+02           0.500000D+00
      0.238570D+02           0.459677D+00
S   2   1.00
      0.350611D+01           0.500000D+00
      0.126861D+01           0.253994D+00
S   1   1.00
      0.300248D+00           1.0000000
S   1   1.00
      0.109045D+00           1.0000000
P   5   1.00
      0.734958D+03           0.159537D-02
      0.113070D+03           0.275037D-01
      0.261165D+02           0.173028D+00
      0.777601D+01           0.461830D+00
      0.243759D+01           0.500000D+00
P   1   1.00
      0.576178D+00           1.0000000
P   1   1.00
      0.152688D+00           1.0000000
****
-S
S   5   1.00
      0.917104D+04           0.566118D-02
      0.137977D+04           0.424022D-01
      0.313601D+03           0.191374D+00
      0.876232D+02           0.500000D+00
      0.274763D+02           0.464087D+00
S   2   1.00
      0.405605D+01           0.500000D+00
      0.147491D+01           0.236690D+00
S   1   1.00
      0.383989D+00           1.0000000
S   1   1.00
      0.138619D+00           1.0000000
P   5   1.00
      0.863401D+03           0.156686D-02
      0.132831D+03           0.271886D-01
      0.307489D+02           0.172897D+00
      0.919940D+01           0.466899D+00
      0.292129D+01           0.500000D+00
P   1   1.00
      0.690074D+00           1.0000000
P   1   1.00
      0.180666D+00           1.0000000
****
-Cl
S   5   1.00
      0.104359D+05           0.562223D-02
      0.157002D+04           0.421306D-01
      0.356863D+03           0.190529D+00
      0.997786D+02           0.500000D+00
      0.313557D+02           0.468034D+00
S   2   1.00
      0.464874D+01           0.500000D+00
      0.169061D+01           0.222192D+00
S   1   1.00
      0.476585D+00           1.0000000
S   1   1.00
      0.170974D+00           1.0000000
P   5   1.00
      0.100918D+04           0.151895D-02
      0.155259D+03           0.265288D-01
      0.360186D+02           0.170633D+00
      0.108279D+02           0.467436D+00
      0.348178D+01           0.500000D+00
P   1   1.00
      0.839567D+00           1.0000000
P   1   1.00
      0.218893D+00           1.0000000
****
-K
S   5   1.00
      0.130832D+05           0.559126D-02
      0.196823D+04           0.419170D-01
      0.447410D+03           0.189941D+00
      0.125228D+03           0.500000D+00
      0.395119D+02           0.467990D+00
S   2   1.00
      0.597289D+01           0.500000D+00
      0.217856D+01           0.200243D+00
S   2   1.00
      0.666023D+00           0.500000D+00
      0.245475D+00           0.238315D+00
S   1   1.00
      0.460449D-01           1.0000000
S   1   1.00
      0.227000D-01           1.0000000
P   5   1.00
      0.136382D+04           0.137277D-02
      0.209819D+03           0.242911D-01
      0.488776D+02           0.160133D+00
      0.148326D+02           0.454837D+00