%mem=800mw
%nprocshared=4
# OLYP/Gen charge nosymm nmr(printeigenvectors) integral(grid=ultrafine)

 AF-NMR fragment for residue    3; version = 5.4.beta1; nbcut =  3.30

   1   1
C        48.3930  -87.2460    6.3650
O        48.1990  -86.5060    7.3320
N        48.3410  -86.8330    5.0970
H        48.4740  -87.4840    4.3790
C        48.0490  -85.4510    4.7320
H        47.6590  -84.9290    5.5970
C        49.3150  -84.7250    4.2580
H        49.0630  -83.6960    4.0430
C        50.3620  -84.7540    5.3760
H        49.9660  -84.2640    6.2530
H        51.2540  -84.2400    5.0490
H        50.6060  -85.7790    5.6170
C        49.8950  -85.3980    3.0090
H        50.3330  -86.3460    3.2820
H        49.1120  -85.5580    2.2860
C        50.9690  -84.4990    2.3890
H        50.4970  -83.7460    1.7790
H        51.6270  -85.0970    1.7770
H        51.5430  -84.0210    3.1720
N        52.9230  -90.0160    8.5090
H        52.7210  -91.0190    8.3280
H        53.5810  -89.9330    9.3110
H        53.3520  -89.5920    7.6630
C        51.6530  -89.3040    8.8330
H        51.0730  -89.9040    9.5190
C        51.9760  -87.9580    9.4850
H        51.0580  -87.4210    9.6740
H        52.4920  -88.1230   10.4160
C        52.8640  -87.1310    8.5570
H        53.7460  -87.7000    8.3020
H        52.3190  -86.8870    7.6570
S        53.3550  -85.6060    9.4030
C        53.3590  -84.5240    7.9540
H        53.9850  -84.9560    7.1850
H        53.7450  -83.5550    8.2280
H        52.3480  -84.4150    7.5850
C        50.8510  -89.0860    7.5560
O        51.4140  -89.0330    6.4620
N        49.5350  -88.9530    7.6980
H        49.1450  -89.0060    8.5950
C        48.6640  -88.7330    6.5440
H        49.1390  -89.1250    5.6570
C        47.3220  -89.4450    6.7390
H        46.9170  -89.1860    7.7060
H        46.6350  -89.1300    5.9670
C        47.5060  -90.9600    6.6580
H        48.2990  -91.2630    7.3240
H        46.5860  -91.4460    6.9480
C        47.8560  -91.3690    5.2340
O        47.6050  -90.6180    4.2940
N        48.4030  -92.5310    5.0170
H        48.5910  -93.1320    5.7670
H        48.6170  -92.8060    4.1030
C        46.9700  -85.4580    3.6490
O        46.7040  -86.4990    3.0430
N        46.3570  -84.2950    3.3990
H        46.6270  -83.4900    3.8770
C        45.3090  -84.1920    2.3720
H        45.2110  -85.1390    1.8630
C        43.9700  -83.8450    3.0250
H        44.0620  -82.9110    3.5560
H        43.2150  -83.7430    2.2660
C        43.5690  -84.9340    3.9930
C        42.9830  -86.1120    3.5130
H        42.8260  -86.2430    2.4530
C        42.6010  -87.1190    4.4070
H        42.1490  -88.0270    4.0360
C        42.8050  -86.9500    5.7810
H        42.5100  -87.7280    6.4700
C        43.3910  -85.7740    6.2620
H        43.5470  -85.6440    7.3220
C        43.7720  -84.7650    5.3680
H        44.2240  -83.8570    5.7390
H        45.5490  -83.4229    1.6379

      48.199000     -86.506000      10.232000    0.02712674
      48.647000     -85.127000       9.843000    0.10632608
      47.026000     -85.654000       9.843000    0.16569680
      47.026000     -87.358000       9.843000    0.05199060
      48.975000     -84.117000       8.782000    0.08060244
      47.423000     -84.117000       8.782000    0.19928963
      46.167000     -85.030000       8.782000    0.12174726
      45.688000     -86.506000       8.782000    0.02072234
      49.238000     -88.808000       2.276000   -0.27817235
      46.895000     -83.606000       7.700000    0.13671607
      46.895000     -82.577000       6.400000   -0.13123490
      49.827000     -81.344000       4.846000    0.05606255
      48.299000     -81.344000       4.846000   -0.04098444
      49.827000     -81.344000       3.240000    0.03601860
      48.299000     -81.344000       3.240000   -0.06606008
      50.736000     -81.677000       5.376000    0.00860753
      49.966000     -84.264000       8.853000   -0.03958391
      49.202000     -82.941000       8.356000    0.00309818
      50.730000     -81.912000       7.056000   -0.03053021
      49.202000     -81.912000       7.056000   -0.03341864
      52.018000     -81.888000       5.852000    0.00599913
      53.254000     -85.693000       4.246000   -0.00288410
      49.513000     -88.055000       1.459000   -0.06577915
      52.806000     -86.346000       4.085000    0.04035593
      51.097000     -88.698000       2.479000   -0.05167810
      52.333000     -87.799000       2.479000    0.01043878
      51.097000     -87.670000       1.179000   -0.01055738
      48.348000     -84.234000       0.183000   -0.09981083
      47.584000     -85.558000       0.183000   -0.10913594
      48.348000     -86.881000       0.183000    0.08833919
      49.876000     -86.882000       0.183000    0.07909109
      49.112000     -85.558000      -0.314000    0.04992923
      53.227000     -85.950000       3.939000   -0.00053345
      53.228000     -83.048000       0.839000   -0.00861924
      50.194000     -85.841000      -0.296000    0.03315728
      50.969000     -84.499000      -0.711000   -0.03191395
      51.261000     -81.394000       2.582000   -0.00846381
      49.733000     -81.394000       2.582000   -0.01440476
      51.261000     -81.394000       0.976000    0.00460739
      49.733000     -81.394000       0.976000   -0.01503390
      48.497000     -82.293000       0.976000   -0.09503444
      51.261000     -82.423000      -0.324000    0.00055596
      49.733000     -82.423000      -0.324000   -0.00602977
      48.969000     -83.746000      -0.324000   -0.03577307
      50.497000     -83.746000      -0.821000   -0.01015903
      54.100000     -85.097000       2.580000   -0.03483264
      53.627000     -86.550000       2.580000   -0.01752505
      54.100000     -85.097000       0.974000   -0.00461351
      53.627000     -83.644000       0.974000   -0.01907945
      52.391000     -87.449000       0.974000   -0.00631480
      53.627000     -86.550000       0.974000   -0.00318913
      53.155000     -85.097000      -0.326000    0.00559369
      52.391000     -83.773000      -0.326000   -0.03117711
      50.863000     -86.420000      -0.326000    0.02614720
      52.391000     -86.421000      -0.326000    0.01118964
      51.627000     -85.097000      -0.823000   -0.00205579
      54.016000     -84.021000       3.975000   -0.01821048
      53.543000     -82.568000       3.975000    0.00143117
      52.307000     -81.669000       3.975000    0.01475430
      50.779000     -81.669000       3.975000    0.03647995
      53.543000     -85.474000       3.975000   -0.01997276
      53.543000     -82.568000       2.369000    0.00890022
      52.307000     -81.669000       2.369000   -0.00014498
      51.957000     -92.342000      10.431000   -0.04118659
      53.485000     -92.342000      10.431000   -0.03891860
      50.721000     -92.472000       9.131000   -0.10498676
      51.957000     -93.371000       9.131000    0.01176282
      53.485000     -93.371000       9.131000    0.04289242
      54.721000     -92.472000       9.131000   -0.02753841
      50.721000     -92.472000       7.525000   -0.13736885
      51.957000     -93.371000       7.525000   -0.02181269
      53.485000     -93.371000       7.525000    0.02692881
      54.721000     -92.472000       7.525000   -0.04123611
      51.957000     -92.342000       6.225000   -0.05725743
      53.485000     -92.342000       6.225000   -0.04269060
      55.109000     -89.933000      11.414000   -0.03757767
      52.817000     -91.256000      11.414000   -0.09115064
      54.345000     -91.257000      11.414000   -0.02527446
      56.054000     -89.933000      10.114000   -0.03534642
      55.581000     -88.480000      10.114000   -0.06519253
      54.345000     -92.285000      10.114000   -0.03030320
      55.581000     -91.386000      10.114000   -0.02077586
      56.054000     -89.933000       8.508000   -0.13485875
      55.581000     -91.386000       8.508000   -0.12081309
      55.825000     -89.592000       6.860000   -0.14713865
      55.352000     -91.045000       6.860000   -0.16477997
      54.880000     -89.592000       5.560000   -0.09928432
      54.116000     -88.269000       5.560000   -0.09416374
      54.116000     -90.916000       5.560000   -0.07786939
      51.073000     -89.904000      12.119000   -0.03520848
      49.545000     -89.904000      11.622000   -0.04547406
      50.309000     -91.227000      11.622000    0.03343034
      51.837000     -91.228000      11.622000   -0.02961456
      49.073000     -91.357000      10.322000   -0.03984604
      50.309000     -92.256000      10.322000   -0.00130191
      50.309000     -92.256000       8.716000   -0.13871349
      51.201000     -86.616000      12.170000   -0.01165863
      50.426000     -87.958000      12.170000   -0.03461936
      50.294000     -86.098000      11.777000    0.01108684
      49.530000     -87.421000      11.777000   -0.02766490
      50.294000     -85.069000      10.477000   -0.04594074
      49.058000     -85.968000      10.477000   -0.00231466
      52.492000     -88.123000      13.016000    0.02376005
      54.020000     -88.123000      12.519000   -0.00043919
      53.256000     -86.800000      12.519000   -0.00797103
      51.728000     -86.800000      12.519000    0.00042529
      50.964000     -88.123000      12.519000   -0.01420934
      51.728000     -89.446000      12.519000   -0.02949509
      53.256000     -89.447000      12.519000   -0.03121634
      54.965000     -88.123000      11.219000   -0.07111595
      56.219000     -87.700000       9.105000    0.04244661
      56.219000     -87.700000       7.499000    0.03080394
      55.274000     -87.700000       6.199000   -0.06633027
      53.355000     -85.606000      12.603000    0.04189473
      54.743000     -85.606000      12.286000    0.06295810
      54.049000     -84.404000      12.286000    0.06832402
      52.661000     -84.404000      12.286000    0.05174438
      51.967000     -85.606000      12.286000    0.00912193
      54.049000     -86.808000      12.286000   -0.00612498
      55.857000     -85.606000      11.398000    0.06858806
      55.379000     -84.135000      11.398000    0.05541537
      54.128000     -83.227000      11.398000    0.02362438
      52.582000     -83.227000      11.398000    0.02649421
      51.331000     -84.135000      11.398000    0.01845831
      55.379000     -87.077000      11.398000    0.01152204
      56.475000     -85.606000      10.115000    0.05628415
      56.117000     -84.156000      10.115000    0.01155577
      51.020000     -83.537000      10.115000   -0.00291009
      50.326000     -84.859000      10.115000   -0.05979424
      56.117000     -87.056000      10.115000    0.03562062
      56.475000     -85.606000       8.691000    0.02197103
      51.601000     -82.495000       9.504000   -0.00314763
      56.459000     -84.524000       7.954000   -0.00867578
      55.618000     -83.073000       6.404000   -0.02035109
      52.977000     -81.867000       6.404000   -0.01505787
      54.134000     -83.182000       5.269000   -0.00671900
      56.458000     -84.956000       7.988000    0.00015427
      56.458000     -84.956000       6.382000    0.04719879
      55.985000     -83.503000       6.382000    0.00937102
      55.985000     -86.409000       6.382000    0.01020523
      55.513000     -84.956000       5.082000    0.03167051
      54.749000     -83.632000       5.082000    0.01124051
      53.221000     -86.279000       5.082000   -0.06260147
      54.749000     -86.280000       5.082000   -0.03074576
      53.985000     -84.956000       4.585000   -0.01983586
      54.509000     -82.232000      10.331000   -0.02798480
      52.981000     -82.232000      10.331000   -0.03195481
      56.218000     -83.555000       9.031000   -0.03890645
      55.745000     -82.102000       9.031000   -0.01128998
      54.509000     -81.203000       9.031000   -0.00351241
      52.981000     -81.203000       9.031000   -0.00681372
      51.745000     -82.102000       9.031000   -0.00782917
      55.745000     -82.102000       7.425000   -0.01058251
      54.509000     -81.203000       7.425000   -0.00552416
      52.981000     -81.203000       7.425000   -0.00904285
      54.509000     -82.231000       6.125000   -0.02253899
      51.584000     -82.063000       6.782000   -0.01104363
      53.925000     -89.033000       5.012000    0.04901464
      53.446000     -87.557000       5.012000    0.00558575
      52.190000     -91.422000       5.012000    0.12706823
      53.446000     -90.509000       5.012000    0.08523077
      52.864000     -89.033000       3.951000    0.21590975
      52.139000     -90.289000       3.951000    0.23088301
      51.414000     -89.033000       3.562000    0.10421570
      49.145000     -89.006000      11.195000   -0.15885132
      48.381000     -87.683000      10.698000   -0.11810872
      47.617000     -89.006000      10.698000   -0.06626124
      48.381000     -90.329000      10.698000   -0.07977300
      50.667000     -89.125000       3.554000   -0.07686077
      44.312000     -90.187000       6.739000   -0.06793862
      46.917000     -89.186000      10.306000   -0.00469438
      46.153000     -87.863000       9.809000    0.05695301
      45.389000     -89.186000       9.809000    0.06422293
      46.153000     -90.509000       9.809000    0.04567346
      44.917000     -87.733000       8.509000   -0.06996909
      44.444000     -89.186000       8.509000    0.00512238
      44.634000     -90.583000       5.164000    0.01029159
      45.107000     -89.130000       3.864000    0.06965913
      48.299000     -91.263000       9.924000    0.00099677
      47.535000     -92.586000       9.427000    0.11778094
      49.063000     -92.587000       9.427000    0.08356279
      50.299000     -92.716000       8.127000   -0.05467430
      45.058000     -91.446000       9.051000   -0.03257403
      45.822000     -92.769000       9.051000   -0.00253434
      44.113000     -91.446000       7.751000   -0.07533016
      44.586000     -92.899000       7.751000   -0.05140605
      45.822000     -93.798000       7.751000   -0.02103486
      44.113000     -91.446000       6.145000   -0.07054391
      44.585000     -92.899000       6.145000   -0.03651125
      45.822000     -93.798000       6.145000   -0.01759858
      45.536000     -93.425000       5.234000    0.04725413
      44.705000     -90.618000       4.294000    0.05019580
      50.116000     -90.618000       2.844000   -0.02538543
      45.094000     -90.618000       2.844000    0.09213201
      45.573000     -92.094000       2.844000    0.10725799
      49.055000     -90.618000       1.783000   -0.02265049
      48.330000     -89.362000       1.783000   -0.05058889
      46.880000     -89.362000       1.783000    0.12467392
      46.155000     -90.618000       1.783000    0.10349325
      46.880000     -91.874000       1.783000    0.05503073
      47.605000     -90.618000       1.394000    0.05280807
      51.353000     -92.531000       5.017000    0.00410104
      46.195000     -94.487000       5.017000    0.04865857
      51.015000     -93.902000       5.017000   -0.06596740
      50.552000     -91.150000       3.542000    0.03462218
      45.952000     -93.251000       3.542000    0.07907395
      50.119000     -93.132000       7.870000   -0.00782603
      47.827000     -94.455000       7.870000    0.04566450
      49.355000     -94.456000       7.870000    0.03369614
      51.064000     -93.132000       6.570000   -0.06226829
      46.590000     -94.585000       6.570000    0.00868257
      47.827000     -95.484000       6.570000    0.02675562
      49.355000     -95.484000       6.570000    0.01041223
      50.591000     -94.585000       6.570000   -0.02015171
      47.827000     -95.484000       4.964000   -0.02234590
      49.355000     -95.484000       4.964000   -0.05171217
      50.591000     -94.585000       4.964000   -0.07611593
      51.090000     -92.806000       3.300000   -0.03315872
      50.617000     -91.353000       3.300000    0.00812685
      46.617000     -94.259000       3.300000    0.01686511
      47.853000     -95.158000       3.300000   -0.02378128
      49.381000     -95.158000       3.300000   -0.04818563
      50.617000     -94.259000       3.300000   -0.05360226
      50.145000     -92.806000       2.000000   -0.04120996
      49.381000     -91.482000       2.000000   -0.05452091
      47.089000     -92.806000       2.000000    0.00350073
      47.853000     -94.129000       2.000000   -0.01351637
      49.381000     -94.130000       2.000000   -0.03283722
      48.617000     -92.806000       1.503000   -0.03086094
      45.254000     -89.010000       3.043000    0.15712887
      44.672000     -87.975000       1.593000    0.04453116
      45.928000     -88.888000       1.593000    0.21226060
      47.480000     -88.888000       1.593000    0.11001192
      45.979000     -87.755000       0.532000    0.08403077
      47.429000     -87.755000       0.532000    0.15414588
      46.704000     -86.499000       0.143000   -0.09269324
      47.391000     -82.167000       5.980000   -0.14913995
      47.391000     -81.138000       4.680000   -0.11107765
      45.863000     -81.138000       4.680000   -0.19213779
      47.391000     -81.138000       3.074000   -0.06852680
      43.759000     -84.192000      -0.313000    0.04390109
      46.739000     -85.139000      -0.240000   -0.10143844
      43.683000     -85.139000      -0.240000   -0.13079474
      44.447000     -86.462000      -0.240000   -0.20389449
      45.975000     -86.463000      -0.240000   -0.15360014
      45.211000     -85.139000      -0.737000   -0.05058806
      41.650000     -81.789000       3.025000   -0.16586227
      43.588000     -81.188000       1.475000    0.10028469
      44.826000     -80.559000       4.359000   -0.10830316
      43.298000     -80.559000       4.359000   -0.08694378
      42.062000     -81.458000       4.359000   -0.08966684
      44.826000     -80.559000       2.753000    0.06098643
      43.298000     -80.559000       2.753000   -0.03169772
      41.215000     -82.290000       3.069000   -0.14320331
      40.742000     -83.743000       3.069000   -0.07314055
      42.451000     -81.391000       1.463000   -0.05372502
      41.215000     -82.290000       1.463000   -0.11738665
      40.742000     -83.743000       1.463000   -0.12518673
      42.451000     -82.419000       0.163000   -0.00493123
      41.687000     -83.743000       0.163000   -0.10160969
      42.451000     -85.066000       0.163000   -0.15448978
      43.215000     -83.743000      -0.334000    0.02825278
      40.559000     -84.192000       3.993000    0.07976672
      39.973000     -85.370000       3.513000    0.11655215
      40.407000     -85.356000       1.963000    0.03362508
      44.098000     -88.554000       1.963000    0.03556588
      40.826000     -84.790000       1.650000   -0.08820223
      40.353000     -86.243000       1.650000    0.06501563
      40.826000     -87.696000       1.650000    0.01594551
      43.590000     -88.595000       1.650000   -0.00334687
      41.298000     -86.243000       0.350000    0.02049346
      42.062000     -87.566000       0.350000    0.02574002
      43.590000     -87.566000       0.350000   -0.06013124
      42.826000     -86.243000      -0.147000   -0.07444514
      39.591000     -86.377000       4.407000    0.07715956
      44.362000     -89.670000       4.407000   -0.04173862
      40.148000     -89.480000       4.839000   -0.03693020
      41.385000     -90.379000       4.839000   -0.06761603
      42.913000     -90.379000       4.839000   -0.10815765
      39.676000     -88.027000       3.233000    0.01545879
      40.148000     -89.480000       3.233000   -0.01013672
      41.385000     -90.379000       3.233000   -0.03816560
      42.913000     -90.379000       3.233000   -0.05822677
      40.621000     -88.027000       1.933000    0.00377422
      41.385000     -89.350000       1.933000   -0.01742681
      42.913000     -89.351000       1.933000   -0.02959874
      40.229000     -86.194000       7.331000   -0.00352119
      39.795000     -86.208000       5.781000    0.02877786
      39.795000     -87.692000       5.781000   -0.01325838
      42.510000     -87.728000       9.070000   -0.03978163
      40.982000     -87.728000       8.573000    0.05228983
      41.746000     -89.051000       8.573000    0.08665731
      43.274000     -89.051000       8.573000    0.01102277
      40.037000     -87.728000       7.273000    0.05304428
      40.509000     -89.181000       7.273000    0.08989864
      41.746000     -90.080000       7.273000    0.06514298
      43.274000     -90.080000       7.273000   -0.01297408
      41.746000     -90.080000       5.667000   -0.07696714
      43.274000     -90.080000       5.667000   -0.10171195
      41.633000     -83.745000       7.812000    0.03170989
      40.815000     -85.018000       7.812000   -0.00953003
      40.381000     -85.032000       6.262000    0.04177096
      43.547000     -85.644000       9.922000   -0.06084807
      45.075000     -85.644000       9.425000   -0.04402525
      44.311000     -84.321000       9.425000   -0.03929900
      42.783000     -84.321000       9.425000   -0.03109414
      42.019000     -85.644000       9.425000   -0.05751896
      42.783000     -86.967000       9.425000   -0.09015614
      44.311000     -86.967000       9.425000   -0.09280592
      45.547000     -84.191000       8.125000   -0.01442680
      42.783000     -83.292000       8.125000    0.00357804
      42.014000     -82.736000       6.918000    0.10123827
      41.452000     -82.709000       5.368000    0.07808300
      40.762000     -84.023000       5.368000    0.12081467
      45.752000     -83.857000       7.842000    0.00897977
      44.988000     -82.534000       7.842000    0.01544831
      43.460000     -82.534000       7.842000    0.04723186
      46.224000     -82.404000       6.542000   -0.13832830
      44.988000     -81.505000       6.542000   -0.05374666
      43.460000     -81.505000       6.542000    0.02059228
      46.313000     -81.071000       2.441000    0.12316814
      48.022000     -83.423000       0.835000   -0.20444090
      47.549000     -81.970000       0.835000    0.09830476
      46.313000     -81.071000       0.835000    0.29672478
      44.785000     -81.071000       0.835000    0.33339173
      47.077000     -83.423000      -0.465000    0.15839670
      46.313000     -82.099000      -0.465000    0.31904301
      44.785000     -82.099000      -0.465000    0.35592916
      44.021000     -83.423000      -0.465000    0.21201972
      45.549000     -83.423000      -0.962000    0.27189010

  1 0
S   5   1.00
      0.124320D+04           0.603366D-02
      0.187145D+03           0.449576D-01
      0.425126D+02           0.197901D+00
      0.117393D+02           0.500000D+00
      0.350548D+01           0.480364D+00
S   2   1.00
      0.539089D+01          -0.703980D-01
      0.493341D+00           0.500000D+00
S   1   1.00
      0.149741D+00           1.0000000
P   3   1.00
      0.596736D+02           0.629939D-02
      0.918056D+01           0.924897D-01
      0.193658D+01           0.500000D+00
P   1   1.00
      0.526296D+00           1.0000000
P   1   1.00
      0.136319D+00           1.0000000
D   1   1.00
      0.800000D+00           1.0000000
****
  2 0
S   5   1.00
      0.228864D+04           0.585468D-02
      0.344416D+03           0.437333D-01
      0.782538D+02           0.194796D+00
      0.217195D+02           0.500000D+00
      0.655907D+01           0.484614D+00
S   2   1.00
      0.104656D+02          -0.713343D-01
      0.964351D+00           0.500000D+00
S   1   1.00
      0.285127D+00           1.0000000
P   3   1.00
      0.110884D+03           0.627538D-02
      0.170590D+02           0.943170D-01
      0.368999D+01           0.500000D+00
P   1   1.00
      0.992996D+00           1.0000000
P   1   1.00
      0.244924D+00           1.0000000
D   1   1.00
      0.100000D+01           1.0000000
****
  3 0
S   5   1.00
      0.172632D+04           0.593077D-02
      0.259827D+03           0.442539D-01
      0.590335D+02           0.196096D+00
      0.163509D+02           0.500000D+00
      0.491084D+01           0.482987D+00
S   2   1.00
      0.775894D+01          -0.703356D-01
      0.705573D+00           0.500000D+00
S   1   1.00
      0.209286D+00           1.0000000
P   3   1.00
      0.856986D+02           0.615630D-02
      0.131844D+02           0.922010D-01
      0.281860D+01           0.500000D+00
P   1   1.00
      0.765571D+00           1.0000000
P   1   1.00
      0.195949D+00           1.0000000
D   1   1.00
      0.900000D+00           1.0000000
****
  4 0
S   3   1.00
      0.122518D+02           0.233371D-01
      0.186871D+01           0.159150D+00
      0.418208D+00           0.500000D+00
S   1   1.00
      0.106100D+00           1.0000000
P   2   1.00
      0.900000D+01           0.203780D-01
      0.100000D+01           0.500000D+00
****
  5 0
S   5   1.00
      0.124320D+04           0.603366D-02
      0.187145D+03           0.449576D-01
      0.425126D+02           0.197901D+00
      0.117393D+02           0.500000D+00
      0.350548D+01           0.480364D+00
S   2   1.00
      0.539089D+01          -0.703980D-01
      0.493341D+00           0.500000D+00
S   1   1.00
      0.149741D+00           1.0000000
P   3   1.00
      0.596736D+02           0.629939D-02
      0.918056D+01           0.924897D-01
      0.193658D+01           0.500000D+00
P   1   1.00
      0.526296D+00           1.0000000
P   1   1.00
      0.136319D+00           1.0000000
D   1   1.00
      0.800000D+00           1.0000000
****
  6 0
S   3   1.00
      0.122518D+02           0.233371D-01
      0.186871D+01           0.159150D+00
      0.418208D+00           0.500000D+00
S   1   1.00
      0.106100D+00           1.0000000
P   2   1.00
      0.900000D+01           0.203780D-01
      0.100000D+01           0.500000D+00
****
  7 0
S   5   1.00
      0.124320D+04           0.603366D-02
      0.187145D+03           0.449576D-01
      0.425126D+02           0.197901D+00
      0.117393D+02           0.500000D+00
      0.350548D+01           0.480364D+00
S   2   1.00
      0.539089D+01          -0.703980D-01
      0.493341D+00           0.500000D+00
S   1   1.00
      0.149741D+00           1.0000000
P   3   1.00
      0.596736D+02           0.629939D-02
      0.918056D+01           0.924897D-01
      0.193658D+01           0.500000D+00
P   1   1.00
      0.526296D+00           1.0000000
P   1   1.00
      0.136319D+00           1.0000000
D   1   1.00
      0.800000D+00           1.0000000
****
  8 0
S   3   1.00
      0.122518D+02           0.233371D-01
      0.186871D+01           0.159150D+00
      0.418208D+00           0.500000D+00
S   1   1.00
      0.106100D+00           1.0000000
P   2   1.00
      0.900000D+01           0.203780D-01
      0.100000D+01           0.500000D+00
****
  9 0
S   5   1.00
      0.124320D+04           0.603366D-02
      0.187145D+03           0.449576D-01
      0.425126D+02           0.197901D+00
      0.117393D+02           0.500000D+00
      0.350548D+01           0.480364D+00
S   2   1.00
      0.539089D+01          -0.703980D-01
      0.493341D+00           0.500000D+00
S   1   1.00
      0.149741D+00           1.0000000
P   3   1.00
      0.596736D+02           0.629939D-02
      0.918056D+01           0.924897D-01
      0.193658D+01           0.500000D+00
P   1   1.00
      0.526296D+00           1.0000000
P   1   1.00
      0.136319D+00           1.0000000
D   1   1.00
      0.800000D+00           1.0000000
****
 10 0
S   3   1.00
      0.122518D+02           0.233371D-01
      0.186871D+01           0.159150D+00
      0.418208D+00           0.500000D+00
S   1   1.00
      0.106100D+00           1.0000000
P   2   1.00
      0.900000D+01           0.203780D-01
      0.100000D+01           0.500000D+00
****
 11 0
S   3   1.00
      0.122518D+02           0.233371D-01
      0.186871D+01           0.159150D+00
      0.418208D+00           0.500000D+00
S   1   1.00
      0.106100D+00           1.0000000
P   2   1.00
      0.900000D+01           0.203780D-01
      0.100000D+01           0.500000D+00
****
 12 0
S   3   1.00
      0.122518D+02           0.233371D-01
      0.186871D+01           0.159150D+00
      0.418208D+00           0.500000D+00
S   1   1.00
      0.106100D+00           1.0000000
P   2   1.00
      0.900000D+01           0.203780D-01
      0.100000D+01           0.500000D+00
****
 13 0
S   5   1.00
      0.124320D+04           0.603366D-02
      0.187145D+03           0.449576D-01
      0.425126D+02           0.197901D+00
      0.117393D+02           0.500000D+00
      0.350548D+01           0.480364D+00
S   2   1.00
      0.539089D+01          -0.703980D-01
      0.493341D+00           0.500000D+00
S   1   1.00
      0.149741D+00           1.0000000
P   3   1.00
      0.596736D+02           0.629939D-02
      0.918056D+01           0.924897D-01
      0.193658D+01           0.500000D+00
P   1   1.00
      0.526296D+00           1.0000000
P   1   1.00
      0.136319D+00           1.0000000
D   1   1.00
      0.800000D+00           1.0000000
****
 14 0
S   3   1.00
      0.122518D+02           0.233371D-01
      0.186871D+01           0.159150D+00
      0.418208D+00           0.500000D+00
S   1   1.00
      0.106100D+00           1.0000000
P   2   1.00
      0.900000D+01           0.203780D-01
      0.100000D+01           0.500000D+00
****
 15 0
S   3   1.00
      0.122518D+02           0.233371D-01
      0.186871D+01           0.159150D+00
      0.418208D+00           0.500000D+00
S   1   1.00
      0.106100D+00           1.0000000
P   2   1.00
      0.900000D+01           0.203780D-01
      0.100000D+01           0.500000D+00
****
 16 0
S   5   1.00
      0.124320D+04           0.603366D-02
      0.187145D+03           0.449576D-01